15
10
1000
0.9
0.01
ofile
0 12 1 14 6 -1 17 -1 13 11
12 0 20 3 1 5 11 9 -1 -1 
-1 20 0 17 5 2 19 14 1 -1 
14 3 17 0 -1 1 -1 19 12 20
6 -1 5 1 0 9 -1 -1 3 3
-1 5 2 -1 9 0 13 1 6 2
17 11 19 -1 -1 13 0 3 -1 4
7 9 14 15 -1 -1 3 0 -1 11
13 1 -1 12 3 6 -1 -1 0 18
11 -1 -1 20 3 2 4 11 18 0

